(set-logic QF_RDL)
(declare-fun x0 () Real)
(declare-fun x1 () Real)
(declare-fun x2 () Real)
(declare-fun x3 () Real)
(assert (let ((.def_0 (< (/ 1 2) x3))) (let ((.def_1 (< (/ 1 2) x2))) (let ((.def_2 (< (/ 1 2) x1))) (let ((.def_3 (< (/ 1 2) x0))) (let ((.def_4 (and .def_3 .def_2 .def_1 .def_0))) .def_4))))))
(check-sat)
